100
100
895 12
17 24
16 17
566 10
409 14
587 13
904 5
176 10
45 18
590 18
931 25
514 13
797 23
763 25
618 20
998 16
473 19
533 20
143 7
62 9
448 16
665 12
634 4
541 15
209 14
989 2
115 14
926 21
402 5
977 4
611 3
388 19
837 18
428 8
550 6
740 21
15 19
654 25
642 1
560 12
861 19
560 7
728 20
535 17
254 23
923 7
933 9
613 10
324 14
93 23
960 16
525 18
424 7
487 18
76 25
936 9
946 16
930 14
810 22
868 12
784 20
648 18
347 10
631 22
985 21
93 9
199 23
6 1
208 4
109 20
49 2
36 6
708 13
35 16
219 7
602 6
784 18
830 7
351 15
376 18
263 9
396 18
686 16
755 25
900 9
376 23
239 16
841 13
109 17
865 21
90 15
123 13
945 4
902 21
29 24
512 2
198 15
665 14
362 25
641 3
